# Objective value = 3.0199398485626932e+02
x[0] 0
x[1] 0
x[2] 0
x[3] 0
x[4] 0
x[5] 1
x[6] 0
x[7] 0
x[8] 0
x[9] 0
x[10] 1
x[11] 1
x[12] 0
x[13] 1
x[14] 0
x[15] 1
x[16] 0
x[17] 1
x[18] 0
x[19] 0
x[20] 0
x[21] 0
x[22] 1
x[23] 1
x[24] 1
x[25] 0
x[26] 0
x[27] 0
x[28] 0
x[29] 1
x[30] 1
x[31] 1
x[32] 1
x[33] 1
x[34] 0
x[35] 1
x[36] 1
x[37] 1
x[38] 0
x[39] 1
x[40] 1
x[41] 1
x[42] 0
x[43] 0
x[44] 0
x[45] 0
x[46] 0
x[47] 1
x[48] 1
x[49] 0
x[50] 1
x[51] 0
x[52] 1
x[53] 0
x[54] 0
x[55] 0
x[56] 1
x[57] 1
x[58] 0
x[59] 1
x[60] 1
x[61] 0
x[62] 1
x[63] 1
x[64] 1
x[65] 1
x[66] 0
x[67] 1
x[68] 0
x[69] 1
x[70] 0
x[71] 0
x[72] 1
x[73] 1
x[74] 0
x[75] 1
x[76] 1
x[77] 0
x[78] 0
x[79] 1
x[80] 1
x[81] 1
x[82] 1
x[83] 1
x[84] 1
x[85] 0
x[86] 1
x[87] 0
x[88] 0
x[89] 1
x[90] 1
x[91] 1
x[92] 0
x[93] 1
x[94] 0
x[95] 1
x[96] 0
x[97] 0
x[98] 0
x[99] 1
x[100] 1
x[101] 0
x[102] 0
x[103] 0
x[104] 1
x[105] 0
x[106] 1
x[107] 1
x[108] 0
x[109] 0
x[110] 0
x[111] 0
x[112] 0
x[113] 0
x[114] 0
x[115] 0
x[116] 0
x[117] 1
x[118] 1
x[119] 0
x[120] 1
x[121] 0
x[122] 1
x[123] 0
x[124] 0
x[125] 0
x[126] 1
x[127] 0
x[128] 0
x[129] 1
x[130] 1
x[131] 1
x[132] 1
x[133] 0
x[134] 0
x[135] 0
x[136] 1
x[137] 1
x[138] 1
x[139] 0
x[140] 0
x[141] 1
x[142] 0
x[143] 0
x[144] 1
x[145] 1
x[146] 1
x[147] 0
x[148] 1
x[149] 1
x[150] 1
x[151] 1
x[152] 0
x[153] 0
x[154] 0
x[155] 0
x[156] 0
x[157] 1
x[158] 1
x[159] 0
x[160] 1
x[161] 1
x[162] 1
x[163] 0
x[164] 1
x[165] 0
x[166] 1
x[167] 0
x[168] 1
x[169] 0
x[170] 1
x[171] 1
x[172] 0
x[173] 0
x[174] 1
x[175] 0
x[176] 1
x[177] 1
x[178] 1
x[179] 0
x[180] 1
x[181] 1
x[182] 1
x[183] 0
x[184] 0
x[185] 1
x[186] 0
x[187] 1
x[188] 0
x[189] 0
x[190] 1
x[191] 1
x[192] 0
x[193] 0
x[194] 1
x[195] 0
x[196] 0
x[197] 0
x[198] 1
x[199] 0
x[200] 1
x[201] 1
x[202] 0
x[203] 0
x[204] 1
x[205] 0
x[206] 0
x[207] 1
x[208] 1
x[209] 0
x[210] 1
x[211] 1
x[212] 0
x[213] 1
x[214] 0
x[215] 1
x[216] 1
x[217] 0
x[218] 0
x[219] 1
x[220] 1
x[221] 1
x[222] 0
x[223] 0
x[224] 1
x[225] 1
x[226] 1
x[227] 0
x[228] 0
x[229] 1
x[230] 0
x[231] 1
x[232] 1
x[233] 0
x[234] 0
x[235] 1
x[236] 0
x[237] 1
x[238] 1
x[239] 1
x[240] 0
x[241] 1
x[242] 1
x[243] 1
x[244] 1
x[245] 0
x[246] 1
x[247] 0
x[248] 1
x[249] 1
x[250] 1
x[251] 0
x[252] 1
x[253] 1
x[254] 0
x[255] 1
x[256] 0
x[257] 1
x[258] 0
x[259] 1
x[260] 1
x[261] 0
x[262] 1
x[263] 0
x[264] 0
x[265] 1
x[266] 1
x[267] 0
x[268] 1
x[269] 1
x[270] 0
x[271] 0
x[272] 1
x[273] 0
x[274] 1
x[275] 0
x[276] 1
x[277] 0
x[278] 0
x[279] 0
x[280] 0
x[281] 1
x[282] 1
x[283] 1
x[284] 0
x[285] 1
x[286] 1
x[287] 1
x[288] 1
x[289] 1
x[290] 0
x[291] 1
x[292] 1
x[293] 1
x[294] 0
x[295] 1
x[296] 0
x[297] 0
x[298] 0
x[299] 0
x[300] 0
x[301] 0
x[302] 1
x[303] 0
x[304] 1
x[305] 0
x[306] 0
x[307] 0
x[308] 1
x[309] 0
x[310] 1
x[311] 1
x[312] 1
x[313] 0
x[314] 0
x[315] 0
x[316] 1
x[317] 0
x[318] 0
x[319] 0
x[320] 1
x[321] 0
x[322] 1
x[323] 0
x[324] 0
x[325] 0
x[326] 0
x[327] 1
x[328] 1
x[329] 0
x[330] 0
x[331] 0
x[332] 0
x[333] 0
x[334] 1
x[335] 1
x[336] 0
x[337] 1
x[338] 0
x[339] 0
x[340] 0
x[341] 0
x[342] 0
x[343] 0
x[344] 0
x[345] 0
x[346] 1
x[347] 0
x[348] 1
x[349] 1
x[350] 0
x[351] 1
x[352] 0
x[353] 1
x[354] 0
x[355] 1
x[356] 0
x[357] 1
x[358] 1
x[359] 0
x[360] 1
x[361] 0
x[362] 0
x[363] 1
x[364] 1
x[365] 1
x[366] 1
x[367] 1
x[368] 0
x[369] 1
x[370] 0
x[371] 1
x[372] 1
x[373] 1
x[374] 0
x[375] 1
x[376] 1
x[377] 1
x[378] 0
x[379] 1
x[380] 0
x[381] 1
x[382] 0
x[383] 1
x[384] 0
x[385] 1
x[386] 0
x[387] 0
x[388] 1
x[389] 0
x[390] 1
x[391] 0
x[392] 1
x[393] 1
x[394] 1
x[395] 0
x[396] 0
x[397] 0
x[398] 1
x[399] 1
x[400] 0
x[401] 1
x[402] 1
x[403] 1
x[404] 0
x[405] 0
x[406] 1
x[407] 1
x[408] 1
x[409] 1
x[410] 0
x[411] 1
x[412] 0
x[413] 0
x[414] 1
x[415] 0
x[416] 1
x[417] 1
x[418] 0
x[419] 0
x[420] 0
x[421] 0
x[422] 0
x[423] 1
x[424] 0
x[425] 1
x[426] 1
x[427] 0
x[428] 1
x[429] 0
x[430] 0
x[431] 1
x[432] 1
x[433] 0
x[434] 1
x[435] 0
x[436] 0
x[437] 0
x[438] 1
x[439] 0
x[440] 0
x[441] 1
x[442] 0
x[443] 0
x[444] 0
x[445] 0
x[446] 0
x[447] 0
x[448] 1
x[449] 1
x[450] 0
x[451] 1
x[452] 1
x[453] 0
x[454] 0
x[455] 0
x[456] 0
x[457] 0
x[458] 1
x[459] 1
x[460] 0
x[461] 0
x[462] 0
x[463] 0
x[464] 0
x[465] 0
x[466] 0
x[467] 1
x[468] 1
x[469] 0
x[470] 1
x[471] 0
x[472] 0
x[473] 0
x[474] 0
x[475] 1
x[476] 1
x[477] 1
x[478] 0
x[479] 0
x[480] 0
x[481] 1
x[482] 0
x[483] 1
x[484] 1
x[485] 1
x[486] 1
x[487] 1
x[488] 0
x[489] 1
x[490] 0
x[491] 1
x[492] 0
x[493] 0
x[494] 0
x[495] 0
x[496] 1
x[497] 0
x[498] 0
x[499] 1
x[500] 0
x[501] 0
x[502] 0
x[503] 1
x[504] 1
x[505] 1
x[506] 1
x[507] 1
x[508] 0
x[509] 0
x[510] 0
x[511] 1
x[512] 1
x[513] 0
x[514] 1
x[515] 0
x[516] 1
x[517] 0
x[518] 0
x[519] 0
x[520] 1
x[521] 0
x[522] 1
x[523] 1
x[524] 1
x[525] 1
x[526] 0
x[527] 1
x[528] 0
x[529] 1
x[530] 1
x[531] 1
x[532] 1
x[533] 0
x[534] 1
x[535] 0
x[536] 0
x[537] 0
x[538] 0
x[539] 0
x[540] 1
x[541] 1
x[542] 0
x[543] 1
x[544] 1
x[545] 0
x[546] 1
x[547] 0
x[548] 1
x[549] 1
x[550] 0
x[551] 0
x[552] 0
x[553] 0
x[554] 0
x[555] 0
x[556] 0
x[557] 1
x[558] 1
x[559] 1
x[560] 1
x[561] 1
x[562] 0
x[563] 1
x[564] 1
x[565] 1
x[566] 1
x[567] 0
x[568] 1
x[569] 1
x[570] 0
x[571] 0
x[572] 1
x[573] 0
x[574] 0
x[575] 0
x[576] 1
x[577] 1
x[578] 1
x[579] 1
x[580] 0
x[581] 0
x[582] 1
x[583] 1
x[584] 1
x[585] 0
x[586] 0
x[587] 1
x[588] 0
x[589] 1
x[590] 1
x[591] 1
x[592] 0
x[593] 0
x[594] 1
x[595] 0
x[596] 1
x[597] 1
x[598] 1
x[599] 1
x[600] 1
x[601] 1
x[602] 1
x[603] 1
x[604] 1
x[605] 1
x[606] 0
x[607] 1
x[608] 0
x[609] 0
x[610] 1
x[611] 0
x[612] 1
x[613] 1
x[614] 1
x[615] 0
x[616] 1
x[617] 1
x[618] 1
x[619] 1
x[620] 0
x[621] 0
x[622] 0
x[623] 1
x[624] 0
x[625] 0
x[626] 1
x[627] 1
x[628] 0
x[629] 1
x[630] 0
x[631] 0
x[632] 1
x[633] 1
x[634] 1
x[635] 0
x[636] 0
x[637] 0
x[638] 1
x[639] 0
x[640] 1
x[641] 0
x[642] 1
x[643] 1
x[644] 0
x[645] 1
x[646] 0
x[647] 1
x[648] 0
x[649] 0
x[650] 0
x[651] 1
x[652] 0
x[653] 0
x[654] 0
x[655] 0
x[656] 0
x[657] 1
x[658] 0
x[659] 1
x[660] 1
x[661] 0
x[662] 0
x[663] 1
x[664] 0
x[665] 0
x[666] 0
x[667] 0
x[668] 0
x[669] 0
x[670] 0
x[671] 1
x[672] 0
x[673] 1
x[674] 0
x[675] 1
x[676] 0
x[677] 0
x[678] 0
x[679] 1
x[680] 1
x[681] 1
x[682] 1
x[683] 0
x[684] 0
x[685] 0
x[686] 1
x[687] 1
x[688] 0
x[689] 0
x[690] 0
x[691] 1
x[692] 1
x[693] 1
x[694] 1
x[695] 1
x[696] 0
x[697] 1
x[698] 0
x[699] 0
x[700] 0
x[701] 1
x[702] 0
x[703] 1
x[704] 0
x[705] 0
x[706] 0
x[707] 0
x[708] 0
x[709] 1
x[710] 1
x[711] 0
x[712] 1
x[713] 0
x[714] 1
x[715] 0
x[716] 0
x[717] 1
x[718] 0
x[719] 0
x[720] 0
x[721] 1
x[722] 0
x[723] 1
x[724] 1
x[725] 0
x[726] 1
x[727] 0
x[728] 0
x[729] 0
x[730] 0
x[731] 1
x[732] 1
x[733] 0
x[734] 1
x[735] 0
x[736] 1
x[737] 0
x[738] 1
x[739] 0
x[740] 0
x[741] 0
x[742] 0
x[743] 1
x[744] 1
x[745] 1
x[746] 0
x[747] 0
x[748] 1
x[749] 1
x[750] 0
x[751] 0
x[752] 1
x[753] 1
x[754] 0
x[755] 1
x[756] 1
x[757] 1
x[758] 1
x[759] 1
x[760] 0
x[761] 0
x[762] 1
x[763] 0
x[764] 1
x[765] 0
x[766] 1
x[767] 1
x[768] 1
x[769] 1
x[770] 1
x[771] 0
x[772] 1
x[773] 1
x[774] 1
x[775] 1
x[776] 1
x[777] 1
x[778] 0
x[779] 1
x[780] 1
x[781] 1
x[782] 1
x[783] 1
x[784] 1
x[785] 0
x[786] 0
x[787] 1
x[788] 1
x[789] 1
x[790] 1
x[791] 0
x[792] 0
x[793] 1
x[794] 1
x[795] 0
x[796] 0
x[797] 1
x[798] 1
x[799] 0
x[800] 1
x[801] 1
x[802] 0
x[803] 0
x[804] 1
x[805] 1
x[806] 0
x[807] 0
x[808] 0
x[809] 0
x[810] 0
x[811] 1
x[812] 1
x[813] 0
x[814] 1
x[815] 1
x[816] 0
x[817] 1
x[818] 0
x[819] 0
x[820] 1
x[821] 0
x[822] 0
x[823] 1
x[824] 0
x[825] 1
x[826] 1
x[827] 1
x[828] 1
x[829] 0
x[830] 0
x[831] 0
x[832] 0
x[833] 0
x[834] 0
x[835] 1
x[836] 1
x[837] 0
x[838] 0
x[839] 1
x[840] 0
x[841] 1
x[842] 1
x[843] 1
x[844] 0
x[845] 0
x[846] 0
x[847] 0
x[848] 1
x[849] 1
x[850] 0
x[851] 0
x[852] 0
x[853] 1
x[854] 0
x[855] 1
x[856] 1
x[857] 1
x[858] 1
x[859] 0
x[860] 0
x[861] 0
x[862] 0
x[863] 0
x[864] 1
x[865] 0
x[866] 0
x[867] 0
x[868] 0
x[869] 0
x[870] 0
x[871] 1
x[872] 0
x[873] 0
x[874] 0
x[875] 0
x[876] 0
x[877] 0
x[878] 0
x[879] 1
x[880] 0
x[881] 1
x[882] 1
x[883] 0
x[884] 1
x[885] 0
x[886] 1
x[887] 1
x[888] 1
x[889] 0
x[890] 0
x[891] 1
x[892] 0
x[893] 0
x[894] 0
x[895] 0
x[896] 1
x[897] 1
x[898] 1
x[899] 0
x[900] 1
x[901] 0
x[902] 0
x[903] 1
x[904] 1
x[905] 0
x[906] 0
x[907] 1
x[908] 0
x[909] 1
x[910] 1
x[911] 1
x[912] 0
x[913] 0
x[914] 0
x[915] 0
x[916] 1
x[917] 0
x[918] 0
x[919] 0
x[920] 1
x[921] 1
x[922] 0
x[923] 0
x[924] 1
x[925] 0
x[926] 1
x[927] 0
x[928] 1
x[929] 0
x[930] 0
x[931] 0
x[932] 0
x[933] 1
x[934] 1
x[935] 0
x[936] 0
x[937] 1
x[938] 0
x[939] 0
x[940] 1
x[941] 1
x[942] 0
x[943] 0
x[944] 1
x[945] 0
x[946] 1
x[947] 1
x[948] 1
x[949] 0
x[950] 0
x[951] 0
x[952] 0
x[953] 1
x[954] 0
x[955] 1
x[956] 0
x[957] 0
x[958] 0
x[959] 0
x[960] 0
x[961] 1
x[962] 0
x[963] 1
x[964] 0
x[965] 1
x[966] 1
x[967] 1
x[968] 0
x[969] 0
x[970] 1
x[971] 0
x[972] 1
x[973] 1
x[974] 0
x[975] 1
x[976] 0
x[977] 1
x[978] 0
x[979] 0
x[980] 1
x[981] 1
x[982] 1
x[983] 1
x[984] 0
x[985] 0
x[986] 1
x[987] 1
x[988] 0
x[989] 1
x[990] 0
x[991] 0
x[992] 0
x[993] 0
x[994] 0
x[995] 1
x[996] 1
x[997] 0
x[998] 1
x[999] 0
